22
[-1, 9, 0, 0, 49, 40, 0, 1, 85, 0, 27, 34, 0, 5, 90, 0, 6, 27, 0, 0, 70, 83, 
9, -1, 0, 72, 0, 0, 37, 59, 0, 0, 0, 40, 0, 93, 0, 0, 69, 0, 86, 46, 20, 0, 
0, 0, -1, 0, 0, 10, 26, 0, 25, 43, 75, 0, 6, 7, 0, 46, 0, 0, 0, 85, 0, 67, 
0, 72, 0, -1, 0, 0, 0, 0, 0, 76, 79, 0, 0, 95, 78, 82, 7, 0, 0, 93, 0, 14, 
49, 0, 0, 0, -1, 91, 0, 55, 42, 0, 13, 45, 54, 96, 0, 0, 0, 39, 0, 0, 0, 0, 
40, 0, 10, 0, 91, -1, 97, 56, 0, 40, 57, 38, 0, 0, 0, 0, 0, 24, 0, 52, 0, 0, 
0, 37, 26, 0, 0, 97, -1, 25, 0, 58, 52, 4, 62, 54, 0, 79, 23, 42, 0, 98, 46, 0, 
1, 59, 0, 0, 55, 56, 25, -1, 73, 12, 42, 0, 0, 0, 0, 19, 29, 51, 94, 24, 0, 30, 
85, 0, 25, 0, 42, 0, 0, 73, -1, 54, 0, 27, 21, 0, 45, 12, 56, 79, 0, 0, 94, 7, 
0, 0, 43, 76, 0, 40, 58, 12, 54, -1, 26, 0, 49, 8, 0, 0, 0, 0, 0, 99, 0, 0, 
27, 0, 75, 79, 13, 57, 52, 42, 0, 26, -1, 95, 5, 0, 76, 0, 0, 78, 80, 74, 81, 0, 
34, 40, 0, 0, 45, 38, 4, 0, 27, 0, 95, -1, 40, 60, 18, 0, 0, 0, 0, 0, 0, 0, 
0, 0, 6, 0, 54, 0, 62, 0, 21, 49, 5, 40, -1, 0, 0, 64, 50, 0, 0, 0, 74, 0, 
5, 93, 7, 95, 96, 0, 54, 0, 0, 8, 0, 60, 0, -1, 0, 85, 28, 0, 0, 0, 0, 0, 
90, 0, 0, 78, 0, 0, 0, 0, 45, 0, 76, 18, 0, 0, -1, 0, 48, 52, 74, 45, 4, 70, 
0, 0, 46, 82, 0, 0, 79, 19, 12, 0, 0, 0, 64, 85, 0, -1, 85, 40, 0, 95, 0, 53, 
6, 69, 0, 7, 0, 0, 23, 29, 56, 0, 0, 0, 50, 28, 48, 85, -1, 62, 37, 33, 0, 25, 
27, 0, 0, 0, 39, 24, 42, 51, 79, 0, 78, 0, 0, 0, 52, 40, 62, -1, 0, 0, 0, 62, 
0, 86, 0, 0, 0, 0, 0, 94, 0, 0, 80, 0, 0, 0, 74, 0, 37, 0, -1, 0, 24, 17, 
0, 46, 85, 93, 0, 52, 98, 24, 0, 99, 74, 0, 0, 0, 45, 95, 33, 0, 0, -1, 0, 0, 
70, 20, 0, 0, 0, 0, 46, 0, 94, 0, 81, 0, 74, 0, 4, 0, 0, 0, 24, 0, -1, 0, 
83, 0, 67, 14, 0, 0, 0, 30, 7, 0, 0, 0, 0, 0, 70, 53, 25, 62, 17, 0, 0, -1]